c 
c G(n,p) graph
c graph gen seed     : 83322
c number of vertices : 80
c max number of edges: 3160
c edge probability   : 0.400000
c data structure     : sparse
c
c           Graph Stats
c number of vertices  : 80
c nonisolated vertices: 80
c number of edges     : 1267
c edge density        : 0.400949
c max degree          : 43
c avg degree          : 31.68
c min degree          : 22
p col 80 1267
e 1 77
e 1 76
e 1 75
e 1 73
e 1 70
e 1 65
e 1 64
e 1 62
e 1 58
e 1 57
e 1 56
e 1 55
e 1 54
e 1 49
e 1 45
e 1 44
e 1 40
e 1 36
e 1 34
e 1 33
e 1 29
e 1 26
e 1 25
e 1 23
e 1 22
e 1 17
e 1 16
e 1 15
e 1 14
e 1 9
e 1 8
e 1 7
e 1 6
e 1 5
e 1 2
e 2 80
e 2 79
e 2 75
e 2 74
e 2 73
e 2 71
e 2 70
e 2 67
e 2 66
e 2 65
e 2 64
e 2 62
e 2 58
e 2 52
e 2 49
e 2 44
e 2 41
e 2 38
e 2 37
e 2 36
e 2 27
e 2 25
e 2 22
e 2 21
e 2 20
e 2 19
e 2 17
e 2 15
e 2 12
e 2 11
e 2 10
e 2 8
e 2 7
e 3 79
e 3 78
e 3 74
e 3 69
e 3 68
e 3 65
e 3 62
e 3 61
e 3 57
e 3 50
e 3 45
e 3 44
e 3 43
e 3 40
e 3 38
e 3 28
e 3 26
e 3 24
e 3 22
e 3 20
e 3 19
e 3 16
e 3 15
e 3 14
e 3 13
e 3 9
e 3 4
e 4 79
e 4 78
e 4 75
e 4 72
e 4 71
e 4 69
e 4 65
e 4 61
e 4 60
e 4 58
e 4 57
e 4 56
e 4 51
e 4 50
e 4 49
e 4 45
e 4 44
e 4 43
e 4 41
e 4 38
e 4 35
e 4 31
e 4 27
e 4 26
e 4 25
e 4 19
e 4 14
e 4 8
e 4 6
e 5 80
e 5 79
e 5 78
e 5 75
e 5 74
e 5 73
e 5 71
e 5 69
e 5 68
e 5 66
e 5 65
e 5 62
e 5 61
e 5 60
e 5 59
e 5 58
e 5 54
e 5 46
e 5 44
e 5 43
e 5 42
e 5 38
e 5 37
e 5 35
e 5 34
e 5 31
e 5 29
e 5 27
e 5 26
e 5 25
e 5 24
e 5 22
e 5 21
e 5 19
e 5 17
e 5 16
e 5 15
e 5 14
e 5 12
e 5 10
e 5 9
e 5 8
e 6 80
e 6 75
e 6 65
e 6 64
e 6 59
e 6 58
e 6 56
e 6 54
e 6 53
e 6 52
e 6 51
e 6 49
e 6 46
e 6 45
e 6 42
e 6 38
e 6 35
e 6 34
e 6 31
e 6 27
e 6 22
e 6 21
e 6 19
e 6 18
e 6 17
e 6 16
e 6 12
e 7 80
e 7 79
e 7 77
e 7 76
e 7 75
e 7 74
e 7 73
e 7 71
e 7 67
e 7 63
e 7 61
e 7 59
e 7 58
e 7 57
e 7 54
e 7 52
e 7 51
e 7 50
e 7 49
e 7 45
e 7 44
e 7 42
e 7 38
e 7 33
e 7 32
e 7 31
e 7 23
e 7 16
e 7 11
e 7 8
e 8 78
e 8 77
e 8 71
e 8 70
e 8 69
e 8 68
e 8 66
e 8 63
e 8 62
e 8 60
e 8 59
e 8 58
e 8 57
e 8 54
e 8 52
e 8 50
e 8 49
e 8 45
e 8 44
e 8 36
e 8 34
e 8 30
e 8 27
e 8 23
e 8 19
e 8 16
e 8 15
e 8 10
e 9 78
e 9 74
e 9 72
e 9 71
e 9 70
e 9 69
e 9 67
e 9 60
e 9 59
e 9 57
e 9 55
e 9 51
e 9 44
e 9 40
e 9 38
e 9 34
e 9 31
e 9 30
e 9 29
e 9 28
e 9 27
e 9 23
e 9 22
e 9 21
e 9 19
e 9 17
e 9 15
e 10 80
e 10 78
e 10 75
e 10 74
e 10 69
e 10 68
e 10 64
e 10 63
e 10 61
e 10 60
e 10 56
e 10 54
e 10 52
e 10 49
e 10 47
e 10 45
e 10 44
e 10 43
e 10 42
e 10 37
e 10 36
e 10 35
e 10 32
e 10 31
e 10 28
e 10 26
e 10 25
e 10 19
e 10 17
e 11 75
e 11 74
e 11 73
e 11 71
e 11 69
e 11 66
e 11 64
e 11 63
e 11 62
e 11 60
e 11 58
e 11 57
e 11 55
e 11 53
e 11 52
e 11 49
e 11 48
e 11 45
e 11 39
e 11 31
e 11 28
e 11 24
e 11 21
e 11 19
e 11 16
e 11 15
e 11 14
e 11 13
e 12 78
e 12 72
e 12 70
e 12 69
e 12 66
e 12 64
e 12 59
e 12 58
e 12 55
e 12 54
e 12 52
e 12 49
e 12 48
e 12 47
e 12 45
e 12 40
e 12 39
e 12 37
e 12 36
e 12 35
e 12 34
e 12 31
e 12 29
e 12 28
e 12 25
e 12 24
e 12 21
e 12 20
e 12 19
e 12 18
e 12 14
e 12 13
e 13 80
e 13 79
e 13 78
e 13 77
e 13 73
e 13 72
e 13 71
e 13 70
e 13 66
e 13 57
e 13 54
e 13 53
e 13 51
e 13 47
e 13 45
e 13 44
e 13 32
e 13 31
e 13 30
e 13 29
e 13 26
e 13 22
e 13 21
e 13 20
e 13 18
e 13 16
e 13 14
e 14 71
e 14 70
e 14 68
e 14 65
e 14 64
e 14 63
e 14 62
e 14 61
e 14 60
e 14 57
e 14 56
e 14 55
e 14 53
e 14 51
e 14 50
e 14 49
e 14 47
e 14 34
e 14 32
e 14 30
e 14 27
e 14 25
e 14 24
e 14 22
e 14 20
e 14 18
e 14 17
e 14 15
e 15 80
e 15 77
e 15 71
e 15 70
e 15 68
e 15 66
e 15 65
e 15 64
e 15 56
e 15 49
e 15 48
e 15 42
e 15 31
e 15 30
e 15 27
e 15 26
e 15 24
e 15 22
e 15 21
e 15 18
e 15 17
e 16 74
e 16 73
e 16 68
e 16 63
e 16 62
e 16 61
e 16 59
e 16 58
e 16 55
e 16 54
e 16 50
e 16 48
e 16 45
e 16 42
e 16 41
e 16 40
e 16 38
e 16 36
e 16 33
e 16 32
e 16 29
e 16 28
e 16 25
e 16 23
e 16 18
e 16 17
e 17 80
e 17 78
e 17 75
e 17 72
e 17 68
e 17 67
e 17 66
e 17 65
e 17 59
e 17 57
e 17 55
e 17 54
e 17 53
e 17 51
e 17 46
e 17 45
e 17 44
e 17 42
e 17 40
e 17 39
e 17 36
e 17 32
e 17 30
e 17 28
e 17 25
e 17 23
e 17 20
e 17 19
e 18 80
e 18 78
e 18 76
e 18 75
e 18 72
e 18 71
e 18 70
e 18 68
e 18 66
e 18 64
e 18 63
e 18 62
e 18 61
e 18 54
e 18 53
e 18 52
e 18 51
e 18 49
e 18 44
e 18 42
e 18 38
e 18 36
e 18 34
e 18 33
e 18 32
e 18 30
e 18 29
e 18 28
e 18 26
e 18 24
e 18 22
e 18 21
e 18 19
e 19 80
e 19 79
e 19 74
e 19 71
e 19 66
e 19 62
e 19 61
e 19 60
e 19 55
e 19 52
e 19 47
e 19 46
e 19 45
e 19 43
e 19 42
e 19 40
e 19 38
e 19 37
e 19 34
e 19 33
e 19 32
e 19 25
e 20 79
e 20 74
e 20 72
e 20 68
e 20 67
e 20 66
e 20 65
e 20 63
e 20 62
e 20 58
e 20 57
e 20 50
e 20 49
e 20 48
e 20 46
e 20 45
e 20 44
e 20 40
e 20 35
e 20 34
e 20 32
e 20 31
e 20 28
e 20 27
e 20 24
e 20 21
e 21 80
e 21 79
e 21 73
e 21 72
e 21 71
e 21 70
e 21 62
e 21 61
e 21 57
e 21 56
e 21 52
e 21 50
e 21 49
e 21 48
e 21 41
e 21 40
e 21 36
e 21 34
e 21 33
e 21 30
e 21 28
e 21 26
e 21 25
e 21 23
e 21 22
e 22 80
e 22 77
e 22 75
e 22 70
e 22 67
e 22 64
e 22 62
e 22 61
e 22 57
e 22 55
e 22 54
e 22 49
e 22 46
e 22 45
e 22 43
e 22 42
e 22 41
e 22 39
e 22 37
e 22 33
e 22 32
e 22 31
e 22 29
e 22 25
e 22 23
e 23 80
e 23 79
e 23 75
e 23 74
e 23 72
e 23 71
e 23 67
e 23 64
e 23 63
e 23 60
e 23 57
e 23 55
e 23 54
e 23 53
e 23 52
e 23 49
e 23 41
e 23 40
e 23 39
e 23 37
e 23 36
e 23 35
e 23 34
e 23 30
e 23 26
e 23 24
e 24 80
e 24 76
e 24 75
e 24 73
e 24 70
e 24 65
e 24 62
e 24 60
e 24 55
e 24 53
e 24 51
e 24 41
e 24 39
e 24 38
e 24 37
e 24 35
e 24 32
e 24 31
e 24 28
e 25 79
e 25 78
e 25 76
e 25 75
e 25 73
e 25 67
e 25 65
e 25 64
e 25 61
e 25 60
e 25 57
e 25 52
e 25 50
e 25 46
e 25 36
e 25 34
e 25 32
e 25 29
e 25 27
e 26 80
e 26 79
e 26 75
e 26 74
e 26 73
e 26 70
e 26 69
e 26 68
e 26 65
e 26 63
e 26 62
e 26 57
e 26 54
e 26 52
e 26 48
e 26 46
e 26 45
e 26 42
e 26 41
e 26 40
e 26 39
e 26 38
e 26 34
e 26 30
e 26 29
e 26 27
e 27 78
e 27 77
e 27 76
e 27 75
e 27 74
e 27 71
e 27 68
e 27 67
e 27 66
e 27 64
e 27 50
e 27 45
e 27 42
e 27 40
e 27 38
e 27 35
e 27 34
e 27 30
e 28 78
e 28 74
e 28 70
e 28 66
e 28 65
e 28 63
e 28 59
e 28 58
e 28 53
e 28 52
e 28 50
e 28 49
e 28 43
e 28 42
e 28 36
e 28 33
e 28 29
e 29 80
e 29 77
e 29 76
e 29 73
e 29 72
e 29 71
e 29 70
e 29 69
e 29 67
e 29 66
e 29 62
e 29 59
e 29 58
e 29 53
e 29 52
e 29 51
e 29 49
e 29 46
e 29 42
e 29 40
e 29 36
e 29 33
e 29 32
e 30 76
e 30 74
e 30 73
e 30 72
e 30 70
e 30 69
e 30 68
e 30 66
e 30 65
e 30 64
e 30 58
e 30 57
e 30 56
e 30 54
e 30 51
e 30 48
e 30 47
e 30 46
e 30 44
e 30 43
e 30 42
e 30 37
e 30 32
e 30 31
e 31 79
e 31 78
e 31 77
e 31 75
e 31 73
e 31 72
e 31 70
e 31 69
e 31 67
e 31 66
e 31 59
e 31 55
e 31 53
e 31 52
e 31 50
e 31 46
e 31 45
e 31 43
e 31 35
e 32 76
e 32 71
e 32 65
e 32 64
e 32 62
e 32 60
e 32 59
e 32 56
e 32 53
e 32 51
e 32 48
e 32 46
e 32 45
e 32 44
e 32 39
e 32 38
e 32 36
e 32 33
e 33 77
e 33 73
e 33 72
e 33 71
e 33 68
e 33 67
e 33 64
e 33 63
e 33 62
e 33 58
e 33 57
e 33 49
e 33 48
e 33 47
e 33 46
e 33 45
e 33 37
e 33 36
e 33 34
e 34 74
e 34 73
e 34 67
e 34 66
e 34 63
e 34 62
e 34 61
e 34 54
e 34 51
e 34 48
e 34 43
e 34 40
e 34 37
e 34 36
e 35 78
e 35 73
e 35 71
e 35 67
e 35 66
e 35 65
e 35 59
e 35 57
e 35 54
e 35 50
e 35 47
e 35 45
e 35 43
e 35 40
e 35 37
e 36 80
e 36 79
e 36 78
e 36 77
e 36 75
e 36 71
e 36 70
e 36 66
e 36 63
e 36 60
e 36 56
e 36 55
e 36 52
e 36 49
e 36 48
e 36 47
e 36 42
e 36 41
e 37 78
e 37 75
e 37 74
e 37 72
e 37 70
e 37 69
e 37 68
e 37 67
e 37 63
e 37 61
e 37 59
e 37 56
e 37 55
e 37 54
e 37 52
e 37 51
e 37 47
e 37 46
e 37 44
e 37 40
e 37 39
e 37 38
e 38 78
e 38 73
e 38 70
e 38 69
e 38 64
e 38 63
e 38 62
e 38 52
e 38 46
e 38 44
e 38 43
e 39 80
e 39 75
e 39 74
e 39 70
e 39 67
e 39 66
e 39 53
e 39 52
e 39 51
e 39 50
e 39 47
e 39 45
e 39 40
e 40 80
e 40 79
e 40 76
e 40 75
e 40 72
e 40 71
e 40 65
e 40 62
e 40 61
e 40 60
e 40 57
e 40 55
e 40 53
e 40 50
e 40 49
e 40 48
e 40 47
e 40 45
e 40 44
e 40 43
e 40 41
e 41 79
e 41 77
e 41 74
e 41 73
e 41 71
e 41 70
e 41 69
e 41 67
e 41 64
e 41 63
e 41 60
e 41 59
e 41 55
e 41 53
e 41 47
e 41 46
e 41 45
e 41 44
e 42 80
e 42 79
e 42 75
e 42 74
e 42 70
e 42 68
e 42 65
e 42 64
e 42 61
e 42 60
e 42 59
e 42 56
e 42 53
e 42 51
e 42 50
e 42 49
e 42 47
e 42 45
e 42 44
e 43 79
e 43 73
e 43 72
e 43 71
e 43 68
e 43 65
e 43 59
e 43 58
e 43 57
e 43 53
e 43 52
e 43 50
e 43 49
e 43 48
e 43 46
e 43 45
e 43 44
e 44 74
e 44 73
e 44 68
e 44 64
e 44 62
e 44 54
e 44 49
e 44 46
e 45 79
e 45 78
e 45 76
e 45 75
e 45 72
e 45 66
e 45 57
e 45 53
e 45 52
e 45 49
e 45 46
e 46 74
e 46 72
e 46 69
e 46 68
e 46 64
e 46 63
e 46 59
e 46 58
e 46 56
e 46 54
e 46 53
e 46 52
e 46 50
e 46 47
e 47 76
e 47 74
e 47 72
e 47 65
e 47 63
e 47 59
e 47 55
e 47 54
e 47 52
e 47 51
e 47 50
e 48 80
e 48 75
e 48 74
e 48 73
e 48 66
e 48 56
e 48 55
e 48 49
e 49 80
e 49 79
e 49 76
e 49 75
e 49 74
e 49 71
e 49 70
e 49 64
e 49 63
e 49 57
e 49 54
e 49 52
e 50 74
e 50 72
e 50 70
e 50 59
e 50 57
e 50 56
e 50 51
e 51 80
e 51 79
e 51 78
e 51 77
e 51 71
e 51 70
e 51 68
e 51 63
e 51 62
e 51 60
e 51 57
e 51 56
e 51 53
e 51 52
e 52 79
e 52 73
e 52 72
e 52 71
e 52 68
e 52 65
e 52 64
e 52 60
e 52 59
e 52 58
e 52 57
e 52 55
e 53 76
e 53 74
e 53 73
e 53 70
e 53 69
e 53 67
e 53 56
e 54 78
e 54 75
e 54 72
e 54 65
e 54 64
e 54 63
e 54 61
e 54 60
e 54 57
e 54 56
e 54 55
e 55 79
e 55 77
e 55 76
e 55 75
e 55 74
e 55 73
e 55 71
e 55 68
e 55 67
e 55 64
e 55 63
e 55 60
e 55 59
e 55 58
e 55 57
e 55 56
e 56 80
e 56 77
e 56 76
e 56 75
e 56 74
e 56 71
e 56 60
e 56 57
e 57 80
e 57 72
e 57 66
e 57 59
e 58 78
e 58 77
e 58 75
e 58 72
e 58 70
e 58 67
e 58 65
e 58 63
e 58 61
e 58 60
e 59 80
e 59 79
e 59 77
e 59 75
e 59 74
e 59 70
e 59 64
e 59 61
e 60 78
e 60 77
e 60 75
e 60 74
e 60 73
e 60 67
e 60 65
e 60 62
e 60 61
e 61 80
e 61 78
e 61 76
e 61 74
e 61 70
e 61 68
e 62 79
e 62 70
e 62 68
e 62 63
e 63 78
e 63 75
e 63 73
e 63 72
e 63 69
e 63 67
e 63 64
e 64 78
e 64 70
e 64 67
e 65 80
e 65 79
e 65 76
e 65 75
e 65 71
e 65 69
e 65 68
e 65 67
e 65 66
e 66 80
e 66 79
e 66 77
e 66 76
e 66 75
e 66 73
e 66 72
e 66 71
e 66 69
e 66 68
e 66 67
e 67 77
e 67 68
e 68 80
e 68 76
e 68 75
e 68 74
e 68 70
e 68 69
e 69 77
e 69 74
e 69 72
e 69 71
e 70 79
e 70 77
e 70 73
e 70 72
e 71 76
e 71 75
e 71 73
e 72 79
e 72 76
e 72 75
e 72 74
e 73 78
e 73 75
e 74 76
e 75 79
e 75 78
e 75 77
e 76 79
e 76 77
e 77 80
e 78 80
